10  5
 4  3  0  4  2 14  3  7  1  3  15 155  10
 0  4  4  4  2 15  3  6  1 10   1 150  10
 0  3  4  8  2 10  3 11  1  9   0 149   5
 4 11  1  4  2 12  0  8  3  3  11 161  10
 4  6  0  6  2 14  1  5  3  7   9 160   5
 1  7  3  9  2 10  0  5  4  5   9 149   5
 3  6  0  9  2 15  4  4  1  8   9 155  10
 4  6  0 10  2 15  3  4  1  3   8 150  10
 0  9  3  9  2  8  1 10  4  6   1 153  10
 3  4  4 10  2 16  1  7  0 11  16 153   5
